; Options: -in -smt2
(set-option :produce-unsat-assumptions true)

(declare-fun start!2789 () Bool)

(assert start!2789)

(declare-fun b!15259 () Bool)

(declare-fun res!11859 () Bool)

(declare-fun e!8684 () Bool)

(assert (=> b!15259 (=> (not res!11859) (not e!8684))))

(declare-datatypes ((array!1255 0))(
  ( (array!1256 (arr!553 (Array (_ BitVec 32) (_ FloatingPoint 11 53))) (size!553 (_ BitVec 32))) )
))
(declare-fun q!79 () array!1255)

(declare-fun qInv!0 (array!1255) Bool)

(assert (=> b!15259 (= res!11859 (qInv!0 q!79))))

(declare-fun res!11860 () Bool)

(assert (=> start!2789 (=> (not res!11860) (not e!8684))))

(declare-fun jz!49 () (_ BitVec 32))

(assert (=> start!2789 (= res!11860 (and (bvsle #b00000000000000000000000000000010 jz!49) (bvslt jz!49 #b00000000000000000000000000010011)))))

(assert (=> start!2789 e!8684))

(assert (=> start!2789 true))

(declare-datatypes ((array!1257 0))(
  ( (array!1258 (arr!554 (Array (_ BitVec 32) (_ BitVec 32))) (size!554 (_ BitVec 32))) )
))
(declare-fun iq!146 () array!1257)

(declare-fun array_inv!501 (array!1257) Bool)

(assert (=> start!2789 (array_inv!501 iq!146)))

(declare-fun array_inv!502 (array!1255) Bool)

(assert (=> start!2789 (array_inv!502 q!79)))

(declare-fun b!15261 () Bool)

(declare-fun res!11862 () Bool)

(assert (=> b!15261 (=> (not res!11862) (not e!8684))))

(declare-fun iqInv!0 (array!1257) Bool)

(assert (=> b!15261 (= res!11862 (iqInv!0 iq!146))))

(declare-fun b!15262 () Bool)

(declare-fun j!78 () (_ BitVec 32))

(declare-fun z!100 () (_ FloatingPoint 11 53))

(assert (=> b!15262 (= e!8684 (and (bvsgt j!78 #b00000000000000000000000000000000) (let ((expr!19 (fp.sub roundNearestTiesToEven z!100 (fp.mul roundNearestTiesToEven (fp #b0 #b10000010111 #b0000000000000000000000000000000000000000000000000000) ((_ to_fp 11 53) roundNearestTiesToEven (ite (fp.isNaN (fp.mul roundNearestTiesToEven (fp #b0 #b01111100111 #b0000000000000000000000000000000000000000000000000000) z!100)) #b00000000000000000000000000000000 (ite (fp.gt (fp.mul roundNearestTiesToEven (fp #b0 #b01111100111 #b0000000000000000000000000000000000000000000000000000) z!100) ((_ to_fp 11 53) roundTowardZero #b01111111111111111111111111111111)) #b01111111111111111111111111111111 (ite (fp.lt (fp.mul roundNearestTiesToEven (fp #b0 #b01111100111 #b0000000000000000000000000000000000000000000000000000) z!100) ((_ to_fp 11 53) roundTowardZero #b10000000000000000000000000000000)) #b10000000000000000000000000000000 ((_ fp.to_sbv 32) roundTowardZero (fp.mul roundNearestTiesToEven (fp #b0 #b01111100111 #b0000000000000000000000000000000000000000000000000000) z!100)))))))))) (and (not (fp.isNaN expr!19)) (fp.gt expr!19 ((_ to_fp 11 53) roundTowardNegative #b101111111111111111111111111111111)) (not (fp.lt expr!19 ((_ to_fp 11 53) roundTowardPositive #b010000000000000000000000000000000)))))))))

(declare-fun b!15260 () Bool)

(declare-fun res!11861 () Bool)

(assert (=> b!15260 (=> (not res!11861) (not e!8684))))

(assert (=> b!15260 (= res!11861 (and (bvsle #b00000000000000000000000000000000 j!78) (bvsle j!78 jz!49) (fp.leq (fp #b0 #b00000000000 #b0000000000000000000000000000000000000000000000000000) z!100) (fp.leq z!100 (fp #b0 #b10000110001 #b0100000000000000000000010011111111111111111111111100))))))

(assert (= (and start!2789 res!11860) b!15259))

(assert (= (and b!15259 res!11859) b!15260))

(assert (= (and b!15260 res!11861) b!15261))

(assert (= (and b!15261 res!11862) b!15262))

(declare-fun m!21493 () Bool)

(assert (=> b!15259 m!21493))

(declare-fun m!21495 () Bool)

(assert (=> start!2789 m!21495))

(declare-fun m!21497 () Bool)

(assert (=> start!2789 m!21497))

(declare-fun m!21499 () Bool)

(assert (=> b!15261 m!21499))

(check-sat (not start!2789) (not b!15261) (not b!15259))
(check-sat)
